ilp_joint/output/nitrogen fixation_ilp.lp
Maximize
  4.409515723153934e-04 Z_634_0_0 + 0.00223699401783313 Z_634_0_1
   + 0.873376911119966 Z_634_0_2 + 0.00122130824192873 Z_634_0_3
   + 0.0227238350479569 Z_634_0_4 + 3.033578306308288e-04 Z_191_0_0
   + 0.0010818882560387 Z_191_0_1 + 0.807266480725281 Z_191_0_2
   + 0.0116750140919213 Z_191_0_3 + 0.0796732590961283 Z_191_0_4
   + 2.7246066707235702e-04 Z_88_0_0 + 9.0815185744292748e-04 Z_88_0_1
   + 0.8059760783791508 Z_88_0_2 + 0.000987217 Z_88_0_3
   + 0.0918560921909288 Z_88_0_4 + 2.6786967541918169e-04 Z_478_0_0
   + 9.5002282420246313e-04 Z_478_0_1 + 0.8013424353804323 Z_478_0_2
   + 0.00660952151602086 Z_478_0_3 + 0.0908301506039253 Z_478_0_4
   + 1.638812669831198e-04 Z_680_0_0 + 0.00487184602728722 Z_680_0_1
   + 0.8792573972197064 Z_680_0_2 + 0.0011035358431133 Z_680_0_3
   + 0.0146033396429099 Z_680_0_4 + 0.3259196528620388 Z_96_6_0
   + 0.00725050465960574 Z_96_6_1 + 0.0270448193756382 Z_96_6_2
   + 0.00783071440778363 Z_96_6_3 + 0.5319543086949338 Z_96_6_4
   + 0.00418294099128246 Z_96_4_0 + 3.9173972277659221e-04 Z_96_4_1
   + 0.018772817983505 Z_96_4_2 + 0.0341268436267215 Z_96_4_3
   + 0.8425256576757145 Z_96_4_4 + 0.7919615574858976 Z_96_5_0
   + 0.01057736553569 Z_96_5_1 + 0.0219825142301324 Z_96_5_2
   + 0.0112229319443441 Z_96_5_3 + 0.0642556308039359 Z_96_5_4
   + 4.4307660327568249e-04 Z_96_1_0 + 6.080085572894682e-04 Z_96_1_1
   + 0.691644695964392 Z_96_1_2 + 6.825623271916381e-04 Z_96_1_3
   + 0.2066216565478511 Z_96_1_4 + 4.4307660327568249e-04 Z_96_0_0
   + 6.080085572894682e-04 Z_96_0_1 + 0.691644695964392 Z_96_0_2
   + 6.825623271916381e-04 Z_96_0_3 + 0.2066216565478511 Z_96_0_4
   + 0.1199544419907132 Z_96_2_0 + 0.0381733892444571 Z_96_2_1
   + 0.0016962837650782 Z_96_2_2 + 0.4630815912396925 Z_96_2_3
   + 0.2770942937600591 Z_96_2_4 + 4.4307660327568249e-04 Z_461_0_0
   + 6.080085572894682e-04 Z_461_0_1 + 0.691644695964392 Z_461_0_2
   + 6.825623271916381e-04 Z_461_0_3 + 0.2066216565478511 Z_461_0_4
   + 4.7580561527411929e-04 Z_37_0_0 + 0.000671897 Z_37_0_1
   + 0.6859648771651106 Z_37_0_2 + 6.9950582603115429e-04 Z_37_0_3
   + 0.2121879144515796 Z_37_0_4
Subject To
 constraint1_6340: Z_634_0_0 + Z_634_0_1 + Z_634_0_2 + Z_634_0_3
   + Z_634_0_4 <= 1
 constraint1_1910: Z_191_0_0 + Z_191_0_1 + Z_191_0_2 + Z_191_0_3
   + Z_191_0_4 <= 1
 constraint1_880: Z_88_0_0 + Z_88_0_1 + Z_88_0_2 + Z_88_0_3 + Z_88_0_4
   <= 1
 constraint1_4780: Z_478_0_0 + Z_478_0_1 + Z_478_0_2 + Z_478_0_3
   + Z_478_0_4 <= 1
 constraint1_6800: Z_680_0_0 + Z_680_0_1 + Z_680_0_2 + Z_680_0_3
   + Z_680_0_4 <= 1
 constraint1_966: Z_96_6_0 + Z_96_6_1 + Z_96_6_2 + Z_96_6_3 + Z_96_6_4
   <= 1
 constraint1_964: Z_96_4_0 + Z_96_4_1 + Z_96_4_2 + Z_96_4_3 + Z_96_4_4
   <= 1
 constraint1_965: Z_96_5_0 + Z_96_5_1 + Z_96_5_2 + Z_96_5_3 + Z_96_5_4
   <= 1
 constraint1_961: Z_96_1_0 + Z_96_1_1 + Z_96_1_2 + Z_96_1_3 + Z_96_1_4
   <= 1
 constraint1_960: Z_96_0_0 + Z_96_0_1 + Z_96_0_2 + Z_96_0_3 + Z_96_0_4
   <= 1
 constraint1_962: Z_96_2_0 + Z_96_2_1 + Z_96_2_2 + Z_96_2_3 + Z_96_2_4
   <= 1
 constraint1_4610: Z_461_0_0 + Z_461_0_1 + Z_461_0_2 + Z_461_0_3
   + Z_461_0_4 <= 1
 constraint1_370: Z_37_0_0 + Z_37_0_1 + Z_37_0_2 + Z_37_0_3 + Z_37_0_4
   <= 1
 constraint2_6340: Z_634_0_0 <= 1
 constraint2_6341: Z_634_0_1 <= 1
 constraint2_6342: Z_634_0_2 <= 1
 constraint2_6343: Z_634_0_3 <= 1
 constraint2_1910: Z_191_0_0 <= 1
 constraint2_1911: Z_191_0_1 <= 1
 constraint2_1912: Z_191_0_2 <= 1
 constraint2_1913: Z_191_0_3 <= 1
 constraint2_880: Z_88_0_0 <= 1
 constraint2_881: Z_88_0_1 <= 1
 constraint2_882: Z_88_0_2 <= 1
 constraint2_883: Z_88_0_3 <= 1
 constraint2_4780: Z_478_0_0 <= 1
 constraint2_4781: Z_478_0_1 <= 1
 constraint2_4782: Z_478_0_2 <= 1
 constraint2_4783: Z_478_0_3 <= 1
 constraint2_6800: Z_680_0_0 <= 1
 constraint2_6801: Z_680_0_1 <= 1
 constraint2_6802: Z_680_0_2 <= 1
 constraint2_6803: Z_680_0_3 <= 1
 constraint2_960: Z_96_6_0 + Z_96_4_0 + Z_96_5_0 + Z_96_1_0 + Z_96_0_0
   + Z_96_2_0 <= 1
 constraint2_961: Z_96_6_1 + Z_96_4_1 + Z_96_5_1 + Z_96_1_1 + Z_96_0_1
   + Z_96_2_1 <= 1
 constraint2_962: Z_96_6_2 + Z_96_4_2 + Z_96_5_2 + Z_96_1_2 + Z_96_0_2
   + Z_96_2_2 <= 1
 constraint2_963: Z_96_6_3 + Z_96_4_3 + Z_96_5_3 + Z_96_1_3 + Z_96_0_3
   + Z_96_2_3 <= 1
 constraint2_4610: Z_461_0_0 <= 1
 constraint2_4611: Z_461_0_1 <= 1
 constraint2_4612: Z_461_0_2 <= 1
 constraint2_4613: Z_461_0_3 <= 1
 constraint2_370: Z_37_0_0 <= 1
 constraint2_371: Z_37_0_1 <= 1
 constraint2_372: Z_37_0_2 <= 1
 constraint2_373: Z_37_0_3 <= 1
Bounds
Binaries
 Z_634_0_0 Z_634_0_1 Z_634_0_2 Z_634_0_3 Z_634_0_4 Z_191_0_0 Z_191_0_1
 Z_191_0_2 Z_191_0_3 Z_191_0_4 Z_88_0_0 Z_88_0_1 Z_88_0_2 Z_88_0_3 Z_88_0_4
 Z_478_0_0 Z_478_0_1 Z_478_0_2 Z_478_0_3 Z_478_0_4 Z_680_0_0 Z_680_0_1
 Z_680_0_2 Z_680_0_3 Z_680_0_4 Z_96_6_0 Z_96_6_1 Z_96_6_2 Z_96_6_3 Z_96_6_4
 Z_96_4_0 Z_96_4_1 Z_96_4_2 Z_96_4_3 Z_96_4_4 Z_96_5_0 Z_96_5_1 Z_96_5_2
 Z_96_5_3 Z_96_5_4 Z_96_1_0 Z_96_1_1 Z_96_1_2 Z_96_1_3 Z_96_1_4 Z_96_0_0
 Z_96_0_1 Z_96_0_2 Z_96_0_3 Z_96_0_4 Z_96_2_0 Z_96_2_1 Z_96_2_2 Z_96_2_3
 Z_96_2_4 Z_461_0_0 Z_461_0_1 Z_461_0_2 Z_461_0_3 Z_461_0_4 Z_37_0_0
 Z_37_0_1 Z_37_0_2 Z_37_0_3 Z_37_0_4
End
