ilp_joint/output/nitrogen fixation_ilp.mps
NAME nitrogen fixation_srl_ilp
* Max problem is converted into Min one
ROWS
 N  OBJ
 L  constraint1_1620
 L  constraint1_4480
 L  constraint1_3780
 L  constraint2_1620
 L  constraint2_1621
 L  constraint2_1622
 L  constraint2_1623
 L  constraint2_4480
 L  constraint2_4481
 L  constraint2_4482
 L  constraint2_4483
 L  constraint2_3780
 L  constraint2_3781
 L  constraint2_3782
 L  constraint2_3783
COLUMNS
    MARKER    'MARKER'                 'INTORG'
    Z_162_0_0  OBJ       -2.2822481364391918e-04
    Z_162_0_0  constraint1_1620  1
    Z_162_0_0  constraint2_1620  1
    Z_162_0_1  OBJ       -1.2210055609175932e-03
    Z_162_0_1  constraint1_1620  1
    Z_162_0_1  constraint2_1621  1
    Z_162_0_2  OBJ       -5.1918037650891635e-01
    Z_162_0_2  constraint1_1620  1
    Z_162_0_2  constraint2_1622  1
    Z_162_0_3  OBJ       -3.7110436793464811e-04
    Z_162_0_3  constraint1_1620  1
    Z_162_0_3  constraint2_1623  1
    Z_162_0_4  OBJ       -3.7899928874858746e-01
    Z_162_0_4  constraint1_1620  1
    Z_448_0_0  OBJ       -1.8328792580959462e-04
    Z_448_0_0  constraint1_4480  1
    Z_448_0_0  constraint2_4480  1
    Z_448_0_1  OBJ       -2.0298630663741725e-03
    Z_448_0_1  constraint1_4480  1
    Z_448_0_1  constraint2_4481  1
    Z_448_0_2  OBJ       -8.8946726168998236e-01
    Z_448_0_2  constraint1_4480  1
    Z_448_0_2  constraint2_4482  1
    Z_448_0_3  OBJ       -2.0398755449099371e-03
    Z_448_0_3  constraint1_4480  1
    Z_448_0_3  constraint2_4483  1
    Z_448_0_4  OBJ       -6.2797117729240463e-03
    Z_448_0_4  constraint1_4480  1
    Z_378_0_0  OBJ       -3.9256414092993572e-04
    Z_378_0_0  constraint1_3780  1
    Z_378_0_0  constraint2_3780  1
    Z_378_0_1  OBJ       -1.9745723799494963e-03
    Z_378_0_1  constraint1_3780  1
    Z_378_0_1  constraint2_3781  1
    Z_378_0_2  OBJ       -8.5464483616894016e-01
    Z_378_0_2  constraint1_3780  1
    Z_378_0_2  constraint2_3782  1
    Z_378_0_3  OBJ       -6.4273393074914167e-03
    Z_378_0_3  constraint1_3780  1
    Z_378_0_3  constraint2_3783  1
    Z_378_0_4  OBJ       -3.6560688002689072e-02
    Z_378_0_4  constraint1_3780  1
    MARKER    'MARKER'                 'INTEND'
RHS
    RHS1      constraint1_1620  1
    RHS1      constraint1_4480  1
    RHS1      constraint1_3780  1
    RHS1      constraint2_1620  1
    RHS1      constraint2_1621  1
    RHS1      constraint2_1622  1
    RHS1      constraint2_1623  1
    RHS1      constraint2_4480  1
    RHS1      constraint2_4481  1
    RHS1      constraint2_4482  1
    RHS1      constraint2_4483  1
    RHS1      constraint2_3780  1
    RHS1      constraint2_3781  1
    RHS1      constraint2_3782  1
    RHS1      constraint2_3783  1
BOUNDS
 UP BND1      Z_162_0_0  1
 UP BND1      Z_162_0_1  1
 UP BND1      Z_162_0_2  1
 UP BND1      Z_162_0_3  1
 UP BND1      Z_162_0_4  1
 UP BND1      Z_448_0_0  1
 UP BND1      Z_448_0_1  1
 UP BND1      Z_448_0_2  1
 UP BND1      Z_448_0_3  1
 UP BND1      Z_448_0_4  1
 UP BND1      Z_378_0_0  1
 UP BND1      Z_378_0_1  1
 UP BND1      Z_378_0_2  1
 UP BND1      Z_378_0_3  1
 UP BND1      Z_378_0_4  1
ENDATA
