ilp_joint/output/nitrogen fixation_ilp.sol
# Solution for model nitrogen fixation_srl_ilp
# Objective value = 2.2632924743678391e+00
Z_162_0_0 0
Z_162_0_1 0
Z_162_0_2 1
Z_162_0_3 0
Z_162_0_4 0
Z_448_0_0 0
Z_448_0_1 0
Z_448_0_2 1
Z_448_0_3 0
Z_448_0_4 0
Z_378_0_0 0
Z_378_0_1 0
Z_378_0_2 1
Z_378_0_3 0
Z_378_0_4 0
